(set-logic HORN)
(declare-fun assign_295_27_11_abs01 (Int Int Int Int Int Int Int) Bool)
(declare-fun assert_286_26_11_abs01 (Int Int Int Int Int Int Int) Bool)
(declare-fun assert_265_25_11_abs01 (Int Int Int Int Int Int Int) Bool)
(declare-fun while_298_24_1_abs01 (Int Int Int Int Int Int Int) Bool)
(declare-fun assign_212_23_8_abs01 (Int Int Int Int Int Int Int) Bool)
(declare-fun assert_206_21_8_abs01 (Int Int Int Int Int Int Int) Bool)
(declare-fun assign_161_19_5_abs01 (Int Int Int Int Int Int Int) Bool)
(declare-fun arrayassign_152_18_5_abs01 (Int Int Int Int Int Int Int) Bool)
(declare-fun assert_135_17_12_abs01 (Int Int Int Int Int Int Int) Bool)
(declare-fun while_164_16_1_abs01 (Int Int Int Int Int Int Int) Bool)
(declare-fun assign_85_15_1_abs01 (Int Int Int Int Int Int Int) Bool)
(declare-fun assign_79_12_8_abs01 (Int Int Int Int Int Int Int) Bool)
(declare-fun assign_67_11_1_abs01 (Int Int Int Int Int Int Int) Bool)
(declare-fun end_abs01 (Int Int Int Int Int Int Int) Bool)
(declare-fun start_abs01 (Int Int Int Int Int Int Int) Bool)
(assert (forall ((b (Array Int Int)) (a (Array Int Int)) (Nb Int) (Na Int) (i Int) (vabs_f_f Int) (vabs_s_f_f Int)) (start_abs01 vabs_f_f (select b vabs_f_f) vabs_s_f_f (select a vabs_s_f_f) Nb Na i)))
(assert (forall ((i Int) (Na Int) (Nb Int) (a (Array Int Int)) (b (Array Int Int)) (vabs_0_f_f Int) (vabs_0_s_f_f Int)) (=> (start_abs01 vabs_0_f_f (select b vabs_0_f_f) vabs_0_s_f_f (select a vabs_0_s_f_f) Nb Na i) (assign_67_11_1_abs01 vabs_0_f_f (select b vabs_0_f_f) vabs_0_s_f_f (select a vabs_0_s_f_f) Nb Na i))))
(assert (forall ((rnd Int) (i Int) (Na Int) (Nb Int) (a (Array Int Int)) (b (Array Int Int)) (vabs_0_f_f Int) (vabs_0_s_f_f Int)) (=> (assign_67_11_1_abs01 vabs_0_f_f (select b vabs_0_f_f) vabs_0_s_f_f (select a vabs_0_s_f_f) Nb Na i) (assign_79_12_8_abs01 vabs_0_f_f (select b vabs_0_f_f) vabs_0_s_f_f (select a vabs_0_s_f_f) Nb rnd i))))
(assert (forall ((rnd Int) (i Int) (Na Int) (Nb Int) (a (Array Int Int)) (b (Array Int Int)) (vabs_0_f_f Int) (vabs_0_s_f_f Int)) (=> (assign_79_12_8_abs01 vabs_0_f_f (select b vabs_0_f_f) vabs_0_s_f_f (select a vabs_0_s_f_f) Nb Na i) (assign_85_15_1_abs01 vabs_0_f_f (select b vabs_0_f_f) vabs_0_s_f_f (select a vabs_0_s_f_f) rnd Na i))))
(assert (forall ((i Int) (Na Int) (Nb Int) (a (Array Int Int)) (b (Array Int Int)) (vabs_0_f_f Int) (vabs_0_s_f_f Int)) (=> (assign_85_15_1_abs01 vabs_0_f_f (select b vabs_0_f_f) vabs_0_s_f_f (select a vabs_0_s_f_f) Nb Na i) (while_164_16_1_abs01 vabs_0_f_f (select b vabs_0_f_f) vabs_0_s_f_f (select a vabs_0_s_f_f) Nb Na Na))))
(assert (forall ((b (Array Int Int)) (a (Array Int Int)) (Nb Int) (Na Int) (i Int) (vabs_0_f_f Int) (vabs_0_s_f_f Int)) (=> (and (while_164_16_1_abs01 vabs_0_f_f (select b vabs_0_f_f) vabs_0_s_f_f (select a vabs_0_s_f_f) Nb Na i) (< i (+ Na Nb))) (assert_135_17_12_abs01 vabs_0_f_f (select b vabs_0_f_f) vabs_0_s_f_f (select a vabs_0_s_f_f) Nb Na i))))
(assert (forall ((b (Array Int Int)) (a (Array Int Int)) (Nb Int) (Na Int) (i Int) (vabs_0_f_f Int) (vabs_0_s_f_f Int)) (=> (and (while_164_16_1_abs01 vabs_0_f_f (select b vabs_0_f_f) vabs_0_s_f_f (select a vabs_0_s_f_f) Nb Na i) (not (< i (+ Na Nb)))) (assert_206_21_8_abs01 vabs_0_f_f (select b vabs_0_f_f) vabs_0_s_f_f (select a vabs_0_s_f_f) Nb Na i))))
(assert (forall ((k Int) (i Int) (Na Int) (Nb Int) (a (Array Int Int)) (b (Array Int Int))) (=> (and (assert_135_17_12_abs01 (- k Na) (select b (- k Na)) k (select a k) Nb Na i) (<= Na k) (< k i)) (= (select a k) (select b (- k Na))))))
(assert (forall ((i Int) (Na Int) (Nb Int) (a (Array Int Int)) (b (Array Int Int)) (vabs_0_f_f Int) (vabs_0_s_f_f Int)) (=> (assert_135_17_12_abs01 vabs_0_f_f (select b vabs_0_f_f) vabs_0_s_f_f (select a vabs_0_s_f_f) Nb Na i) (arrayassign_152_18_5_abs01 vabs_0_f_f (select b vabs_0_f_f) vabs_0_s_f_f (select a vabs_0_s_f_f) Nb Na i))))
(assert (forall ((i Int) (Na Int) (Nb Int) (a (Array Int Int)) (b (Array Int Int)) (vabs_0_f_f Int) (vabs_0_s_f_f Int)) (=> (and (arrayassign_152_18_5_abs01 (- i Na) (select b (- i Na)) vabs_0_s_f_f (select a vabs_0_s_f_f) Nb Na i) (arrayassign_152_18_5_abs01 vabs_0_f_f (select b vabs_0_f_f) vabs_0_s_f_f (select a vabs_0_s_f_f) Nb Na i)) (assign_161_19_5_abs01 vabs_0_f_f (select b vabs_0_f_f) vabs_0_s_f_f (select (store a i (select b (- i Na))) vabs_0_s_f_f) Nb Na i))))
(assert (forall ((i Int) (Na Int) (Nb Int) (a (Array Int Int)) (b (Array Int Int)) (vabs_0_f_f Int) (vabs_0_s_f_f Int)) (=> (assign_161_19_5_abs01 vabs_0_f_f (select b vabs_0_f_f) vabs_0_s_f_f (select a vabs_0_s_f_f) Nb Na i) (while_164_16_1_abs01 vabs_0_f_f (select b vabs_0_f_f) vabs_0_s_f_f (select a vabs_0_s_f_f) Nb Na (+ i 1)))))
(assert (forall ((k Int) (i Int) (Na Int) (Nb Int) (a (Array Int Int)) (b (Array Int Int))) (=> (and (assert_206_21_8_abs01 (- k Na) (select b (- k Na)) k (select a k) Nb Na i) (<= Na k) (< k (+ Na Nb))) (= (select a k) (select b (- k Na))))))
(assert (forall ((i Int) (Na Int) (Nb Int) (a (Array Int Int)) (b (Array Int Int)) (vabs_0_f_f Int) (vabs_0_s_f_f Int)) (=> (assert_206_21_8_abs01 vabs_0_f_f (select b vabs_0_f_f) vabs_0_s_f_f (select a vabs_0_s_f_f) Nb Na i) (assign_212_23_8_abs01 vabs_0_f_f (select b vabs_0_f_f) vabs_0_s_f_f (select a vabs_0_s_f_f) Nb Na i))))
(assert (forall ((i Int) (Na Int) (Nb Int) (a (Array Int Int)) (b (Array Int Int)) (vabs_0_f_f Int) (vabs_0_s_f_f Int)) (=> (assign_212_23_8_abs01 vabs_0_f_f (select b vabs_0_f_f) vabs_0_s_f_f (select a vabs_0_s_f_f) Nb Na i) (while_298_24_1_abs01 vabs_0_f_f (select b vabs_0_f_f) vabs_0_s_f_f (select a vabs_0_s_f_f) Nb Na Na))))
(assert (forall ((b (Array Int Int)) (a (Array Int Int)) (Nb Int) (Na Int) (i Int) (vabs_0_f_f Int) (vabs_0_s_f_f Int)) (=> (and (while_298_24_1_abs01 vabs_0_f_f (select b vabs_0_f_f) vabs_0_s_f_f (select a vabs_0_s_f_f) Nb Na i) (< i (+ Na Nb))) (assert_265_25_11_abs01 vabs_0_f_f (select b vabs_0_f_f) vabs_0_s_f_f (select a vabs_0_s_f_f) Nb Na i))))
(assert (forall ((b (Array Int Int)) (a (Array Int Int)) (Nb Int) (Na Int) (i Int) (vabs_0_f_f Int) (vabs_0_s_f_f Int)) (=> (and (while_298_24_1_abs01 vabs_0_f_f (select b vabs_0_f_f) vabs_0_s_f_f (select a vabs_0_s_f_f) Nb Na i) (not (< i (+ Na Nb)))) (end_abs01 vabs_0_f_f (select b vabs_0_f_f) vabs_0_s_f_f (select a vabs_0_s_f_f) Nb Na i))))
(assert (forall ((k Int) (i Int) (Na Int) (Nb Int) (a (Array Int Int)) (b (Array Int Int))) (=> (and (assert_265_25_11_abs01 (- k Na) (select b (- k Na)) k (select a k) Nb Na i) (<= Na k) (< k (+ Na Nb))) (= (select a k) (select b (- k Na))))))
(assert (forall ((i Int) (Na Int) (Nb Int) (a (Array Int Int)) (b (Array Int Int)) (vabs_0_f_f Int) (vabs_0_s_f_f Int)) (=> (assert_265_25_11_abs01 vabs_0_f_f (select b vabs_0_f_f) vabs_0_s_f_f (select a vabs_0_s_f_f) Nb Na i) (assert_286_26_11_abs01 vabs_0_f_f (select b vabs_0_f_f) vabs_0_s_f_f (select a vabs_0_s_f_f) Nb Na i))))
(assert (forall ((i Int) (Na Int) (Nb Int) (a (Array Int Int)) (b (Array Int Int))) (=> (assert_286_26_11_abs01 (- i Na) (select b (- i Na)) i (select a i) Nb Na i) (= (select a i) (select b (- i Na))))))
(assert (forall ((i Int) (Na Int) (Nb Int) (a (Array Int Int)) (b (Array Int Int)) (vabs_0_f_f Int) (vabs_0_s_f_f Int)) (=> (assert_286_26_11_abs01 vabs_0_f_f (select b vabs_0_f_f) vabs_0_s_f_f (select a vabs_0_s_f_f) Nb Na i) (assign_295_27_11_abs01 vabs_0_f_f (select b vabs_0_f_f) vabs_0_s_f_f (select a vabs_0_s_f_f) Nb Na i))))
(assert (forall ((i Int) (Na Int) (Nb Int) (a (Array Int Int)) (b (Array Int Int)) (vabs_0_f_f Int) (vabs_0_s_f_f Int)) (=> (assign_295_27_11_abs01 vabs_0_f_f (select b vabs_0_f_f) vabs_0_s_f_f (select a vabs_0_s_f_f) Nb Na i) (while_298_24_1_abs01 vabs_0_f_f (select b vabs_0_f_f) vabs_0_s_f_f (select a vabs_0_s_f_f) Nb Na (+ i 1)))))
(check-sat)